(set-info :source |printed by MathSAT|)
(declare-fun call_Age2.ite.next () Int)
(declare-fun flby2 () Int)
(declare-fun call_Sofar.flby.next () Bool)
(declare-fun call_Sofar.flby () Bool)
(declare-fun call_Age.age_of_p.next () Int)
(declare-fun flby3.next () Bool)
(declare-fun env.next () Bool)
(declare-fun param_p () Bool)
(declare-fun call_Age3.flby.next () Int)
(declare-fun call_Age.flby () Int)
(declare-fun flby3 () Bool)
(declare-fun call_Age3.flby () Int)
(declare-fun flby.next () Int)
(declare-fun call_Age2.age_of_p.next () Int)
(declare-fun param_q.next () Bool)
(declare-fun call_Age3.ite.next () Int)
(declare-fun m () Int)
(declare-fun call_Age.age_of_p () Int)
(declare-fun _OK_ () Bool)
(declare-fun flby2.next () Int)
(declare-fun param_q () Bool)
(declare-fun call_Sofar.Sofar.next () Bool)
(declare-fun call_Age2.flby () Int)
(declare-fun call_Age.flby.next () Int)
(declare-fun call_Sofar.Sofar () Bool)
(declare-fun param_r.next () Bool)
(declare-fun k () Int)
(declare-fun call_Age2.age_of_p () Int)
(declare-fun flby () Int)
(declare-fun env () Bool)
(declare-fun m.next () Int)
(declare-fun _OK_.next () Bool)
(declare-fun call_Age3.age_of_p.next () Int)
(declare-fun k.next () Int)
(declare-fun call_Age3.age_of_p () Int)
(declare-fun call_Age2.flby.next () Int)
(declare-fun call_Age.ite.next () Int)
(define-fun .def_332 () Bool (= call_Age3.age_of_p.next call_Age3.flby.next))
(define-fun .def_330 () Bool (= call_Sofar.flby.next call_Sofar.Sofar.next))
(define-fun .def_328 () Bool (= call_Age2.flby.next call_Age2.age_of_p.next))
(define-fun .def_326 () Bool (= call_Age.flby.next call_Age.age_of_p.next))
(define-fun .def_324 () Bool (= env.next call_Sofar.Sofar.next))
(define-fun .def_321 () Bool (= flby2.next m.next))
(define-fun .def_319 () Bool (= flby.next k.next))
(define-fun .def_316 () Bool (not env.next))
(define-fun .def_317 () Bool (or flby3.next .def_316))
(define-fun .def_318 () Bool (= _OK_.next .def_317))
(define-fun .def_320 () Bool (and .def_318 .def_319))
(define-fun .def_322 () Bool (and .def_320 .def_321))
(define-fun .def_325 () Bool (and .def_322 .def_324))
(define-fun .def_327 () Bool (and .def_325 .def_326))
(define-fun .def_329 () Bool (and .def_327 .def_328))
(define-fun .def_331 () Bool (and .def_329 .def_330))
(define-fun .def_333 () Bool (and .def_331 .def_332))
(define-fun .def_232 () Bool (= call_Age3.flby call_Age3.age_of_p))
(define-fun .def_229 () Bool (= call_Sofar.flby call_Sofar.Sofar))
(define-fun .def_227 () Bool (= call_Age2.age_of_p call_Age2.flby))
(define-fun .def_225 () Bool (= call_Age.age_of_p call_Age.flby))
(define-fun .def_223 () Bool (= env call_Sofar.Sofar))
(define-fun .def_220 () Bool (= m flby2))
(define-fun .def_218 () Bool (= k flby))
(define-fun .def_215 () Bool (not env))
(define-fun .def_216 () Bool (or flby3 .def_215))
(define-fun .def_217 () Bool (= _OK_ .def_216))
(define-fun .def_219 () Bool (and .def_217 .def_218))
(define-fun .def_221 () Bool (and .def_219 .def_220))
(define-fun .def_224 () Bool (and .def_221 .def_223))
(define-fun .def_226 () Bool (and .def_224 .def_225))
(define-fun .def_228 () Bool (and .def_226 .def_227))
(define-fun .def_230 () Bool (and .def_228 .def_229))
(define-fun .def_233 () Bool (and .def_230 .def_232))
(define-fun .def_334 () Bool (and .def_233 .def_333))
(define-fun .def_312 () Bool (= call_Age3.ite.next call_Age3.flby.next))
(define-fun .def_303 () Bool (<= 1 m.next))
(define-fun .def_302 () Bool (<= 1 k.next))
(define-fun .def_304 () Bool (and .def_302 .def_303))
(define-fun .def_299 () Bool (<= k.next call_Age.age_of_p.next))
(define-fun .def_300 () Bool (not .def_299))
(define-fun .def_301 () Bool (or param_q.next .def_300))
(define-fun .def_305 () Bool (and .def_301 .def_304))
(define-fun .def_294 () Bool (<= m.next call_Age2.age_of_p.next))
(define-fun .def_295 () Bool (not .def_294))
(define-fun .def_296 () Bool (or param_r.next .def_295))
(define-fun .def_306 () Bool (and .def_296 .def_305))
(define-fun .def_307 () Bool (and call_Sofar.Sofar .def_306))
(define-fun .def_309 () Bool (= .def_307 call_Sofar.flby.next))
(define-fun .def_291 () Bool (= call_Age2.ite.next call_Age2.flby.next))
(define-fun .def_288 () Bool (= call_Age.ite.next call_Age.flby.next))
(define-fun .def_283 () Bool (not param_q))
(define-fun .def_280 () Int (* (- 1) call_Age2.ite.next))
(define-fun .def_281 () Int (+ call_Age2.age_of_p .def_280))
(define-fun .def_282 () Bool (= .def_281 (- 2)))
(define-fun .def_284 () Bool (or .def_282 .def_283))
(define-fun .def_278 () Bool (= call_Age2.ite.next 0))
(define-fun .def_279 () Bool (or param_q .def_278))
(define-fun .def_285 () Bool (and .def_279 .def_284))
(define-fun .def_273 () Bool (= call_Age3.ite.next 0))
(define-fun .def_274 () Bool (or param_p .def_273))
(define-fun .def_268 () Int (* (- 1) call_Age3.ite.next))
(define-fun .def_269 () Int (+ call_Age3.age_of_p .def_268))
(define-fun .def_270 () Bool (= .def_269 (- 2)))
(define-fun .def_264 () Bool (not param_p))
(define-fun .def_271 () Bool (or .def_264 .def_270))
(define-fun .def_261 () Int (* (- 1) call_Age.ite.next))
(define-fun .def_262 () Int (+ call_Age.age_of_p .def_261))
(define-fun .def_263 () Bool (= .def_262 (- 2)))
(define-fun .def_265 () Bool (or .def_263 .def_264))
(define-fun .def_258 () Bool (= call_Age.ite.next 0))
(define-fun .def_260 () Bool (or .def_258 param_p))
(define-fun .def_266 () Bool (and .def_260 .def_265))
(define-fun .def_272 () Bool (and .def_266 .def_271))
(define-fun .def_275 () Bool (and .def_272 .def_274))
(define-fun .def_247 () Int (* (- 1) call_Age3.age_of_p.next))
(define-fun .def_248 () Int (+ m.next .def_247))
(define-fun .def_249 () Int (+ k.next .def_248))
(define-fun .def_250 () Bool (<= .def_249 0))
(define-fun .def_251 () Bool (not .def_250))
(define-fun .def_253 () Bool (or .def_251 param_r.next))
(define-fun .def_255 () Bool (= .def_253 flby3.next))
(define-fun .def_238 () Bool (= m flby2.next))
(define-fun .def_236 () Bool (= k flby.next))
(define-fun .def_239 () Bool (and .def_236 .def_238))
(define-fun .def_256 () Bool (and .def_239 .def_255))
(define-fun .def_276 () Bool (and .def_256 .def_275))
(define-fun .def_286 () Bool (and .def_276 .def_285))
(define-fun .def_289 () Bool (and .def_286 .def_288))
(define-fun .def_292 () Bool (and .def_289 .def_291))
(define-fun .def_310 () Bool (and .def_292 .def_309))
(define-fun .def_313 () Bool (and .def_310 .def_312))
(define-fun .def_335 () Bool (and .def_313 .def_334))
(assert .def_335)
